benchmark/results/graph__10-1000-0.10-04_14/graph__10-1000-0.10-04_14_Quinton_Benders_primal_sub.lp
\ This file has been generated by DOcplex
\ ENCODING=ISO-8859-1
\Problem name: Quinton Benders_primal_sub

Maximize
 obj: tau
Subject To
 c1: tau <= 0.001639344262
 c2: y_a0_proc_0 + y_a0_proc_1 + y_a0_proc_2 + y_a0_proc_3 - tau = 0
 c3: y_a0_proc_0 <= 1
 c4: y_a0_proc_1 <= 0
 c5: y_a0_proc_2 <= 0
 c6: y_a0_proc_3 <= 0
 c7: tau <= 0.001242236025
 c8: y_a1_proc_0 + y_a1_proc_1 - tau = 0
 c9: y_a1_proc_0 <= 0
 c10: y_a1_proc_1 <= 1
 c11: tau <= 0.002915451895
 c12: y_a2_proc_0 + y_a2_proc_1 + y_a2_proc_2 + y_a2_proc_3 - tau = 0
 c13: y_a2_proc_0 <= 0
 c14: y_a2_proc_1 <= 0
 c15: y_a2_proc_2 <= 1
 c16: y_a2_proc_3 <= 0
 c17: tau <= 0.001420454545
 c18: y_a3_proc_0 + y_a3_proc_2 + y_a3_proc_3 - tau = 0
 c19: y_a3_proc_0 <= 0
 c20: y_a3_proc_2 <= 1
 c21: y_a3_proc_3 <= 0
 c22: tau <= 0.001577287066
 c23: y_a4_proc_0 - tau = 0
 c24: y_a4_proc_0 <= 1
 c25: tau <= 0.001295336788
 c26: y_a5_proc_0 + y_a5_proc_1 + y_a5_proc_2 - tau = 0
 c27: y_a5_proc_0 <= 0
 c28: y_a5_proc_1 <= 0
 c29: y_a5_proc_2 <= 1
 c30: tau <= 0.002475247525
 c31: y_a6_proc_0 + y_a6_proc_1 + y_a6_proc_2 + y_a6_proc_3 - tau = 0
 c32: y_a6_proc_0 <= 0
 c33: y_a6_proc_1 <= 0
 c34: y_a6_proc_2 <= 1
 c35: y_a6_proc_3 <= 0
 c36: tau <= 0.001347708895
 c37: y_a7_proc_0 + y_a7_proc_1 + y_a7_proc_3 - tau = 0
 c38: y_a7_proc_0 <= 0
 c39: y_a7_proc_1 <= 1
 c40: y_a7_proc_3 <= 0
 c41: tau <= 0.001692047377
 c42: y_a8_proc_0 + y_a8_proc_1 + y_a8_proc_2 + y_a8_proc_3 - tau = 0
 c43: y_a8_proc_0 <= 1
 c44: y_a8_proc_1 <= 0
 c45: y_a8_proc_2 <= 0
 c46: y_a8_proc_3 <= 0
 c47: tau <= 0.001253132832
 c48: y_a9_proc_1 + y_a9_proc_2 + y_a9_proc_3 - tau = 0
 c49: y_a9_proc_1 <= 0
 c50: y_a9_proc_2 <= 0
 c51: y_a9_proc_3 <= 1
 c52: u_a0 - u_a1 - 1032 y_a1_proc_0 - 805 y_a1_proc_1 >= -1
 c53: u_a2 - u_a0 - 610 y_a0_proc_0 - 1185 y_a0_proc_1 - 930 y_a0_proc_2
      - 693 y_a0_proc_3 >= 0
 c54: u_a3 - u_a1 - 1032 y_a1_proc_0 - 805 y_a1_proc_1 >= 0
 c55: u_a4 - u_a3 - 749 y_a3_proc_0 - 704 y_a3_proc_2 - 751 y_a3_proc_3 >= -1
 c56: u_a5 - u_a2 - 970 y_a2_proc_0 - 865 y_a2_proc_1 - 343 y_a2_proc_2
      - 1117 y_a2_proc_3 >= -1
 c57: u_a1 - u_a6 - 807 y_a6_proc_0 - 1022 y_a6_proc_1 - 404 y_a6_proc_2
      - 988 y_a6_proc_3 >= -1
 c58: u_a6 - u_a7 - 987 y_a7_proc_0 - 742 y_a7_proc_1 - 693 y_a7_proc_3 >= 0
 c59: u_a2 - u_a8 - 591 y_a8_proc_0 - 546 y_a8_proc_1 - 1043 y_a8_proc_2
      - 983 y_a8_proc_3 >= 0
 c60: u_a9 - u_a7 - 987 y_a7_proc_0 - 742 y_a7_proc_1 - 693 y_a7_proc_3 >= 0
 c61: - 901 y_a9_proc_1 - 1164 y_a9_proc_2 - 798 y_a9_proc_3 >= -1
 c62: u_a1 - u_a9 - 901 y_a9_proc_1 - 1164 y_a9_proc_2 - 798 y_a9_proc_3 >= -1
 c63: u_a8 - u_a6 - 807 y_a6_proc_0 - 1022 y_a6_proc_1 - 404 y_a6_proc_2
      - 988 y_a6_proc_3 >= -1
 c64: u_a8 - u_a0 - 610 y_a0_proc_0 - 1185 y_a0_proc_1 - 930 y_a0_proc_2
      - 693 y_a0_proc_3 >= 0
 c65: u_a7 - u_a8 - 591 y_a8_proc_0 - 546 y_a8_proc_1 - 1043 y_a8_proc_2
      - 983 y_a8_proc_3 >= 0
 c66: u_a0 - u_a4 - 634 y_a4_proc_0 >= 0
 c67: u_a8 - u_a5 - 712 y_a5_proc_0 - 1119 y_a5_proc_1 - 772 y_a5_proc_2 >= 0
 c68: u_a1 - u_a0 - 610 y_a0_proc_0 - 1185 y_a0_proc_1 - 930 y_a0_proc_2
      - 693 y_a0_proc_3 >= 0
 c69: u_a2 - u_a5 - 712 y_a5_proc_0 - 1119 y_a5_proc_1 - 772 y_a5_proc_2 >= 0
 c70: u_a4 - u_a5 - 712 y_a5_proc_0 - 1119 y_a5_proc_1 - 772 y_a5_proc_2 >= -1
 c71: u_a1 - u_a0 - 610 y_a0_proc_0 >= -2370
 c72: u_a1 - u_a0 - 1185 y_a0_proc_1 >= -2370
 c73: u_a0 - u_a1 - 1032 y_a1_proc_0 >= -1
 c74: u_a0 - u_a1 - 805 y_a1_proc_1 >= -1
 c75: u_a2 - u_a0 - 930 y_a0_proc_2 >= 0
 c76: u_a2 - u_a0 - 693 y_a0_proc_3 >= -1185
 c77: u_a2 - u_a0 - 610 y_a0_proc_0 >= 0
 c78: u_a2 - u_a0 - 1185 y_a0_proc_1 >= -1185
 c79: u_a0 - u_a2 - 343 y_a2_proc_2 >= -2371
 c80: u_a0 - u_a2 - 1117 y_a2_proc_3 >= -3556
 c81: u_a0 - u_a2 - 970 y_a2_proc_0 >= -2371
 c82: u_a0 - u_a2 - 865 y_a2_proc_1 >= -3556
 c83: u_a3 - u_a0 - 930 y_a0_proc_2 >= -2370
 c84: u_a3 - u_a0 - 693 y_a0_proc_3 >= -3555
 c85: u_a3 - u_a0 - 610 y_a0_proc_0 >= -2370
 c86: u_a0 - u_a3 - 704 y_a3_proc_2 >= -1
 c87: u_a0 - u_a3 - 751 y_a3_proc_3 >= -1186
 c88: u_a0 - u_a3 - 749 y_a3_proc_0 >= -1
 c89: u_a4 - u_a0 - 610 y_a0_proc_0 >= -1
 c90: u_a0 - u_a4 - 634 y_a4_proc_0 >= 0
 c91: u_a5 - u_a0 - 930 y_a0_proc_2 >= -1
 c92: u_a5 - u_a0 - 610 y_a0_proc_0 >= -1
 c93: u_a5 - u_a0 - 1185 y_a0_proc_1 >= -1186
 c94: u_a0 - u_a5 - 772 y_a5_proc_2 >= -2370
 c95: u_a0 - u_a5 - 712 y_a5_proc_0 >= -2370
 c96: u_a0 - u_a5 - 1119 y_a5_proc_1 >= -3555
 c97: u_a6 - u_a0 - 930 y_a0_proc_2 >= 0
 c98: u_a6 - u_a0 - 693 y_a0_proc_3 >= -1185
 c99: u_a6 - u_a0 - 610 y_a0_proc_0 >= 0
 c100: u_a6 - u_a0 - 1185 y_a0_proc_1 >= -1185
 c101: u_a0 - u_a6 - 404 y_a6_proc_2 >= -2371
 c102: u_a0 - u_a6 - 988 y_a6_proc_3 >= -3556
 c103: u_a0 - u_a6 - 807 y_a6_proc_0 >= -2371
 c104: u_a0 - u_a6 - 1022 y_a6_proc_1 >= -3556
 c105: u_a7 - u_a0 - 693 y_a0_proc_3 >= -1185
 c106: u_a7 - u_a0 - 610 y_a0_proc_0 >= 0
 c107: u_a7 - u_a0 - 1185 y_a0_proc_1 >= 0
 c108: u_a0 - u_a7 - 693 y_a7_proc_3 >= -3556
 c109: u_a0 - u_a7 - 987 y_a7_proc_0 >= -2371
 c110: u_a0 - u_a7 - 742 y_a7_proc_1 >= -2371
 c111: u_a8 - u_a0 - 930 y_a0_proc_2 >= -2370
 c112: u_a8 - u_a0 - 693 y_a0_proc_3 >= -2370
 c113: u_a8 - u_a0 - 610 y_a0_proc_0 >= 0
 c114: u_a8 - u_a0 - 1185 y_a0_proc_1 >= -2370
 c115: u_a0 - u_a8 - 1043 y_a8_proc_2 >= -2371
 c116: u_a0 - u_a8 - 983 y_a8_proc_3 >= -2371
 c117: u_a0 - u_a8 - 591 y_a8_proc_0 >= -1
 c118: u_a0 - u_a8 - 546 y_a8_proc_1 >= -2371
 c119: u_a9 - u_a0 - 930 y_a0_proc_2 >= -1185
 c120: u_a9 - u_a0 - 693 y_a0_proc_3 >= 0
 c121: u_a9 - u_a0 - 1185 y_a0_proc_1 >= -1185
 c122: u_a0 - u_a9 - 1164 y_a9_proc_2 >= -3556
 c123: u_a0 - u_a9 - 798 y_a9_proc_3 >= -2371
 c124: u_a0 - u_a9 - 901 y_a9_proc_1 >= -3556
 c125: u_a2 - u_a1 - 1032 y_a1_proc_0 >= -3555
 c126: u_a2 - u_a1 - 805 y_a1_proc_1 >= -2370
 c127: u_a1 - u_a2 - 970 y_a2_proc_0 >= -1186
 c128: u_a1 - u_a2 - 865 y_a2_proc_1 >= -1
 c129: u_a3 - u_a1 - 1032 y_a1_proc_0 >= -4740
 c130: u_a1 - u_a3 - 749 y_a3_proc_0 >= -1
 c131: u_a4 - u_a1 - 1032 y_a1_proc_0 >= -2371
 c132: u_a1 - u_a4 - 634 y_a4_proc_0 >= 0
 c133: u_a5 - u_a1 - 1032 y_a1_proc_0 >= -1186
 c134: u_a5 - u_a1 - 805 y_a1_proc_1 >= -1
 c135: u_a1 - u_a5 - 712 y_a5_proc_0 >= -3555
 c136: u_a1 - u_a5 - 1119 y_a5_proc_1 >= -2370
 c137: u_a6 - u_a1 - 1032 y_a1_proc_0 >= -3555
 c138: u_a6 - u_a1 - 805 y_a1_proc_1 >= -2370
 c139: u_a1 - u_a6 - 807 y_a6_proc_0 >= -1186
 c140: u_a1 - u_a6 - 1022 y_a6_proc_1 >= -1
 c141: u_a7 - u_a1 - 1032 y_a1_proc_0 >= -2370
 c142: u_a7 - u_a1 - 805 y_a1_proc_1 >= 0
 c143: u_a1 - u_a7 - 987 y_a7_proc_0 >= -2371
 c144: u_a1 - u_a7 - 742 y_a7_proc_1 >= -1
 c145: u_a8 - u_a1 - 1032 y_a1_proc_0 >= -1
 c146: u_a8 - u_a1 - 805 y_a1_proc_1 >= -1
 c147: u_a1 - u_a8 - 591 y_a8_proc_0 >= -2370
 c148: u_a1 - u_a8 - 546 y_a8_proc_1 >= -2370
 c149: u_a9 - u_a1 - 805 y_a1_proc_1 >= -2370
 c150: u_a1 - u_a9 - 901 y_a9_proc_1 >= -1
 c151: u_a3 - u_a2 - 343 y_a2_proc_2 >= -1
 c152: u_a3 - u_a2 - 1117 y_a2_proc_3 >= -2371
 c153: u_a3 - u_a2 - 970 y_a2_proc_0 >= -2371
 c154: u_a2 - u_a3 - 704 y_a3_proc_2 >= 0
 c155: u_a2 - u_a3 - 751 y_a3_proc_3 >= -2370
 c156: u_a2 - u_a3 - 749 y_a3_proc_0 >= -2370
 c157: u_a4 - u_a2 - 970 y_a2_proc_0 >= -1
 c158: u_a2 - u_a4 - 634 y_a4_proc_0 >= -2370
 c159: u_a5 - u_a2 - 343 y_a2_proc_2 >= -1
 c160: u_a5 - u_a2 - 970 y_a2_proc_0 >= -2371
 c161: u_a5 - u_a2 - 865 y_a2_proc_1 >= -2371
 c162: u_a2 - u_a5 - 772 y_a5_proc_2 >= 0
 c163: u_a2 - u_a5 - 712 y_a5_proc_0 >= -2370
 c164: u_a2 - u_a5 - 1119 y_a5_proc_1 >= -2370
 c165: u_a6 - u_a2 - 343 y_a2_proc_2 >= 0
 c166: u_a6 - u_a2 - 1117 y_a2_proc_3 >= -2370
 c167: u_a6 - u_a2 - 970 y_a2_proc_0 >= -2370
 c168: u_a6 - u_a2 - 865 y_a2_proc_1 >= -2370
 c169: u_a2 - u_a6 - 404 y_a6_proc_2 >= -1
 c170: u_a2 - u_a6 - 988 y_a6_proc_3 >= -2371
 c171: u_a2 - u_a6 - 807 y_a6_proc_0 >= -2371
 c172: u_a2 - u_a6 - 1022 y_a6_proc_1 >= -2371
 c173: u_a7 - u_a2 - 1117 y_a2_proc_3 >= -3555
 c174: u_a7 - u_a2 - 970 y_a2_proc_0 >= -3555
 c175: u_a7 - u_a2 - 865 y_a2_proc_1 >= -2370
 c176: u_a2 - u_a7 - 693 y_a7_proc_3 >= -1186
 c177: u_a2 - u_a7 - 987 y_a7_proc_0 >= -1186
 c178: u_a2 - u_a7 - 742 y_a7_proc_1 >= -1
 c179: u_a8 - u_a2 - 343 y_a2_proc_2 >= -2371
 c180: u_a8 - u_a2 - 1117 y_a2_proc_3 >= -3556
 c181: u_a8 - u_a2 - 970 y_a2_proc_0 >= -2371
 c182: u_a8 - u_a2 - 865 y_a2_proc_1 >= -3556
 c183: u_a2 - u_a8 - 1043 y_a8_proc_2 >= 0
 c184: u_a2 - u_a8 - 983 y_a8_proc_3 >= -1185
 c185: u_a2 - u_a8 - 591 y_a8_proc_0 >= 0
 c186: u_a2 - u_a8 - 546 y_a8_proc_1 >= -1185
 c187: u_a9 - u_a2 - 343 y_a2_proc_2 >= -2370
 c188: u_a9 - u_a2 - 1117 y_a2_proc_3 >= -2370
 c189: u_a9 - u_a2 - 865 y_a2_proc_1 >= -3555
 c190: u_a2 - u_a9 - 1164 y_a9_proc_2 >= -1
 c191: u_a2 - u_a9 - 798 y_a9_proc_3 >= -1
 c192: u_a2 - u_a9 - 901 y_a9_proc_1 >= -1186
 c193: u_a4 - u_a3 - 749 y_a3_proc_0 >= -2371
 c194: u_a3 - u_a4 - 634 y_a4_proc_0 >= 0
 c195: u_a5 - u_a3 - 704 y_a3_proc_2 >= -1
 c196: u_a5 - u_a3 - 749 y_a3_proc_0 >= -2371
 c197: u_a3 - u_a5 - 772 y_a5_proc_2 >= 0
 c198: u_a3 - u_a5 - 712 y_a5_proc_0 >= -2370
 c199: u_a6 - u_a3 - 704 y_a3_proc_2 >= 0
 c200: u_a6 - u_a3 - 751 y_a3_proc_3 >= -2370
 c201: u_a6 - u_a3 - 749 y_a3_proc_0 >= -2370
 c202: u_a3 - u_a6 - 404 y_a6_proc_2 >= -1
 c203: u_a3 - u_a6 - 988 y_a6_proc_3 >= -2371
 c204: u_a3 - u_a6 - 807 y_a6_proc_0 >= -2371
 c205: u_a7 - u_a3 - 751 y_a3_proc_3 >= 0
 c206: u_a7 - u_a3 - 749 y_a3_proc_0 >= 0
 c207: u_a3 - u_a7 - 693 y_a7_proc_3 >= -4741
 c208: u_a3 - u_a7 - 987 y_a7_proc_0 >= -4741
 c209: u_a8 - u_a3 - 704 y_a3_proc_2 >= -1
 c210: u_a8 - u_a3 - 751 y_a3_proc_3 >= -1186
 c211: u_a8 - u_a3 - 749 y_a3_proc_0 >= -1
 c212: u_a3 - u_a8 - 1043 y_a8_proc_2 >= -2370
 c213: u_a3 - u_a8 - 983 y_a8_proc_3 >= -3555
 c214: u_a3 - u_a8 - 591 y_a8_proc_0 >= -2370
 c215: u_a9 - u_a3 - 704 y_a3_proc_2 >= 0
 c216: u_a9 - u_a3 - 751 y_a3_proc_3 >= 0
 c217: u_a3 - u_a9 - 1164 y_a9_proc_2 >= -2371
 c218: u_a3 - u_a9 - 798 y_a9_proc_3 >= -2371
 c219: u_a5 - u_a4 - 634 y_a4_proc_0 >= -2370
 c220: u_a4 - u_a5 - 712 y_a5_proc_0 >= -1
 c221: u_a6 - u_a4 - 634 y_a4_proc_0 >= -2369
 c222: u_a4 - u_a6 - 807 y_a6_proc_0 >= -2
 c223: u_a7 - u_a4 - 634 y_a4_proc_0 >= 0
 c224: u_a4 - u_a7 - 987 y_a7_proc_0 >= -2371
 c225: u_a8 - u_a4 - 634 y_a4_proc_0 >= 0
 c226: u_a4 - u_a8 - 591 y_a8_proc_0 >= -1
 c227: u_a6 - u_a5 - 772 y_a5_proc_2 >= 0
 c228: u_a6 - u_a5 - 712 y_a5_proc_0 >= -2370
 c229: u_a6 - u_a5 - 1119 y_a5_proc_1 >= -2370
 c230: u_a5 - u_a6 - 404 y_a6_proc_2 >= -1
 c231: u_a5 - u_a6 - 807 y_a6_proc_0 >= -2371
 c232: u_a5 - u_a6 - 1022 y_a6_proc_1 >= -2371
 c233: u_a7 - u_a5 - 712 y_a5_proc_0 >= -3555
 c234: u_a7 - u_a5 - 1119 y_a5_proc_1 >= -2370
 c235: u_a5 - u_a7 - 987 y_a7_proc_0 >= -1186
 c236: u_a5 - u_a7 - 742 y_a7_proc_1 >= -1
 c237: u_a8 - u_a5 - 772 y_a5_proc_2 >= -2370
 c238: u_a8 - u_a5 - 712 y_a5_proc_0 >= -2370
 c239: u_a8 - u_a5 - 1119 y_a5_proc_1 >= -3555
 c240: u_a5 - u_a8 - 1043 y_a8_proc_2 >= -1
 c241: u_a5 - u_a8 - 591 y_a8_proc_0 >= -1
 c242: u_a5 - u_a8 - 546 y_a8_proc_1 >= -1186
 c243: u_a9 - u_a5 - 772 y_a5_proc_2 >= 0
 c244: u_a9 - u_a5 - 1119 y_a5_proc_1 >= -1185
 c245: u_a5 - u_a9 - 1164 y_a9_proc_2 >= -2371
 c246: u_a5 - u_a9 - 901 y_a9_proc_1 >= -3556
 c247: u_a7 - u_a6 - 988 y_a6_proc_3 >= -3556
 c248: u_a7 - u_a6 - 807 y_a6_proc_0 >= -3556
 c249: u_a7 - u_a6 - 1022 y_a6_proc_1 >= -2371
 c250: u_a6 - u_a7 - 693 y_a7_proc_3 >= -1185
 c251: u_a6 - u_a7 - 987 y_a7_proc_0 >= -1185
 c252: u_a6 - u_a7 - 742 y_a7_proc_1 >= 0
 c253: u_a8 - u_a6 - 404 y_a6_proc_2 >= -2371
 c254: u_a8 - u_a6 - 988 y_a6_proc_3 >= -3556
 c255: u_a8 - u_a6 - 807 y_a6_proc_0 >= -2371
 c256: u_a8 - u_a6 - 1022 y_a6_proc_1 >= -3556
 c257: u_a6 - u_a8 - 1043 y_a8_proc_2 >= 0
 c258: u_a6 - u_a8 - 983 y_a8_proc_3 >= -1185
 c259: u_a6 - u_a8 - 591 y_a8_proc_0 >= 0
 c260: u_a6 - u_a8 - 546 y_a8_proc_1 >= -1185
 c261: u_a9 - u_a6 - 404 y_a6_proc_2 >= -2370
 c262: u_a9 - u_a6 - 988 y_a6_proc_3 >= -2370
 c263: u_a9 - u_a6 - 1022 y_a6_proc_1 >= -3555
 c264: u_a6 - u_a9 - 1164 y_a9_proc_2 >= -1
 c265: u_a6 - u_a9 - 798 y_a9_proc_3 >= -1
 c266: u_a6 - u_a9 - 901 y_a9_proc_1 >= -1186
 c267: u_a8 - u_a7 - 693 y_a7_proc_3 >= -3556
 c268: u_a8 - u_a7 - 987 y_a7_proc_0 >= -2371
 c269: u_a8 - u_a7 - 742 y_a7_proc_1 >= -2371
 c270: u_a7 - u_a8 - 983 y_a8_proc_3 >= -1185
 c271: u_a7 - u_a8 - 591 y_a8_proc_0 >= 0
 c272: u_a7 - u_a8 - 546 y_a8_proc_1 >= 0
 c273: u_a9 - u_a7 - 693 y_a7_proc_3 >= -1
 c274: u_a9 - u_a7 - 742 y_a7_proc_1 >= -1
 c275: u_a7 - u_a9 - 798 y_a9_proc_3 >= -2370
 c276: u_a7 - u_a9 - 901 y_a9_proc_1 >= -2370
 c277: u_a9 - u_a8 - 1043 y_a8_proc_2 >= -1185
 c278: u_a9 - u_a8 - 983 y_a8_proc_3 >= 0
 c279: u_a9 - u_a8 - 546 y_a8_proc_1 >= -1185
 c280: u_a8 - u_a9 - 1164 y_a9_proc_2 >= -3556
 c281: u_a8 - u_a9 - 798 y_a9_proc_3 >= -2371
 c282: u_a8 - u_a9 - 901 y_a9_proc_1 >= -3556

Bounds
End
