benchmark/results/graph__10-1000-0.10-04_14/graph__10-1000-0.10-04_14_Quinton_Benders_primal_sub.txt
solution for: Quinton Benders_primal_sub
objective: 0.00036324
status: OPTIMAL_SOLUTION(2)
u_a0=0.230
u_a1=0.452
u_a2=1.000
u_a3=0.744
u_a5=0.271
u_a6=1.125
u_a7=0.855
u_a8=0.640
u_a9=1.125
tau=0.000
y_a0_proc_0=0.000
y_a1_proc_1=0.000
y_a2_proc_2=0.000
y_a3_proc_2=0.000
y_a4_proc_0=0.000
y_a5_proc_2=0.000
y_a6_proc_2=0.000
y_a7_proc_1=0.000
y_a8_proc_0=0.000
y_a9_proc_3=0.000
